25 2
25 200
20
30
10
40
20
20
20
10
20
30
40
20
10
10
20
20
20
20
40
10
10
40
30
10
20
40 50 0 240 0 0
25 85 49 191 10 3
22 75 30 168 10 3
22 85 95 152 10 3
20 80 69 193 10 1
20 85 40 189 10 2
18 75 60 159 10 1
15 75 54 133 10 3
15 80 67 144 10 2
10 35 57 154 10 3
10 40 106 161 10 1
8 40 33 152 10 2
8 45 32 148 10 1
5 35 53 191 10 2
5 45 35 194 10 3
2 40 39 163 10 1
0 40 41 141 10 3
0 45 51 189 10 1
44 5 73 130 10 1
42 10 40 148 10 3
42 15 94 179 10 2
40 5 45 161 10 1
40 15 64 149 10 2
38 5 45 164 10 2
38 15 51 194 10 2
35 5 45 183 10 2
36 31 0 240 5 4
29 81 0 240 5 4
0 1
0 1
0 1
0 0
0 1
0 0
0 1
0 1
1 0
0 0
1 0
0 0
1 0
1 0
0 0
1 0
0 0
0 0
1 0
1 0
0 0
1 0
1 0
1 0
1 0
